\Problem name: compact

Minimize
OBJROW: C
Subject To
ord(0,1):  x(j0,m0) - x(j0,m2) >= 1
ord(0,2):  - x(j0,m0) + x(j0,m1) >= 3
ord(0,3):  - x(j0,m1) + x(j0,m3) >= 6
ord(0,4):  - x(j0,m3) + x(j0,m5) >= 7
ord(0,5):  x(j0,m4) - x(j0,m5) >= 3
ord(1,1):  - x(j1,m1) + x(j1,m2) >= 8
ord(1,2):  - x(j1,m2) + x(j1,m4) >= 5
ord(1,3):  - x(j1,m4) + x(j1,m5) >= 10
ord(1,4):  x(j1,m0) - x(j1,m5) >= 10
ord(1,5):  - x(j1,m0) + x(j1,m3) >= 10
ord(2,1):  - x(j2,m2) + x(j2,m3) >= 5
ord(2,2):  - x(j2,m3) + x(j2,m5) >= 4
ord(2,3):  x(j2,m0) - x(j2,m5) >= 8
ord(2,4):  - x(j2,m0) + x(j2,m1) >= 9
ord(2,5):  - x(j2,m1) + x(j2,m4) >= 1
ord(3,1):  x(j3,m0) - x(j3,m1) >= 5
ord(3,2):  - x(j3,m0) + x(j3,m2) >= 5
ord(3,3):  - x(j3,m2) + x(j3,m3) >= 5
ord(3,4):  - x(j3,m3) + x(j3,m4) >= 3
ord(3,5):  - x(j3,m4) + x(j3,m5) >= 8
ord(4,1):  x(j4,m1) - x(j4,m2) >= 9
ord(4,2):  - x(j4,m1) + x(j4,m4) >= 3
ord(4,3):  - x(j4,m4) + x(j4,m5) >= 5
ord(4,4):  x(j4,m0) - x(j4,m5) >= 4
ord(4,5):  - x(j4,m0) + x(j4,m3) >= 3
ord(5,1):  - x(j5,m1) + x(j5,m3) >= 3
ord(5,2):  - x(j5,m3) + x(j5,m5) >= 3
ord(5,3):  x(j5,m0) - x(j5,m5) >= 9
ord(5,4):  - x(j5,m0) + x(j5,m4) >= 10
ord(5,5):  x(j5,m2) - x(j5,m4) >= 4
phi(0,1,0):  x(j0,m0) + 60 y(j0,k1,m0) - x(j1,m0) >= 10
psy(0,1,0):  - x(j0,m0) -60 y(j0,k1,m0) + x(j1,m0) >= -57
phi(0,1,1):  x(j0,m1) + 60 y(j0,k1,m1) - x(j1,m1) >= 8
psy(0,1,1):  - x(j0,m1) -60 y(j0,k1,m1) + x(j1,m1) >= -54
phi(0,1,2):  x(j0,m2) + 60 y(j0,k1,m2) - x(j1,m2) >= 5
psy(0,1,2):  - x(j0,m2) -60 y(j0,k1,m2) + x(j1,m2) >= -59
phi(0,1,3):  x(j0,m3) + 60 y(j0,k1,m3) - x(j1,m3) >= 4
psy(0,1,3):  - x(j0,m3) -60 y(j0,k1,m3) + x(j1,m3) >= -53
phi(0,1,4):  x(j0,m4) + 60 y(j0,k1,m4) - x(j1,m4) >= 10
psy(0,1,4):  - x(j0,m4) -60 y(j0,k1,m4) + x(j1,m4) >= -54
phi(0,1,5):  x(j0,m5) + 60 y(j0,k1,m5) - x(j1,m5) >= 10
psy(0,1,5):  - x(j0,m5) -60 y(j0,k1,m5) + x(j1,m5) >= -57
phi(0,2,0):  x(j0,m0) + 60 y(j0,k2,m0) - x(j2,m0) >= 9
psy(0,2,0):  - x(j0,m0) -60 y(j0,k2,m0) + x(j2,m0) >= -57
phi(0,2,1):  x(j0,m1) + 60 y(j0,k2,m1) - x(j2,m1) >= 1
psy(0,2,1):  - x(j0,m1) -60 y(j0,k2,m1) + x(j2,m1) >= -54
phi(0,2,2):  x(j0,m2) + 60 y(j0,k2,m2) - x(j2,m2) >= 5
psy(0,2,2):  - x(j0,m2) -60 y(j0,k2,m2) + x(j2,m2) >= -59
phi(0,2,3):  x(j0,m3) + 60 y(j0,k2,m3) - x(j2,m3) >= 4
psy(0,2,3):  - x(j0,m3) -60 y(j0,k2,m3) + x(j2,m3) >= -53
phi(0,2,4):  x(j0,m4) + 60 y(j0,k2,m4) - x(j2,m4) >= 7
psy(0,2,4):  - x(j0,m4) -60 y(j0,k2,m4) + x(j2,m4) >= -54
phi(0,2,5):  x(j0,m5) + 60 y(j0,k2,m5) - x(j2,m5) >= 8
psy(0,2,5):  - x(j0,m5) -60 y(j0,k2,m5) + x(j2,m5) >= -57
phi(0,3,0):  x(j0,m0) + 60 y(j0,k3,m0) - x(j3,m0) >= 5
psy(0,3,0):  - x(j0,m0) -60 y(j0,k3,m0) + x(j3,m0) >= -57
phi(0,3,1):  x(j0,m1) + 60 y(j0,k3,m1) - x(j3,m1) >= 5
psy(0,3,1):  - x(j0,m1) -60 y(j0,k3,m1) + x(j3,m1) >= -54
phi(0,3,2):  x(j0,m2) + 60 y(j0,k3,m2) - x(j3,m2) >= 5
psy(0,3,2):  - x(j0,m2) -60 y(j0,k3,m2) + x(j3,m2) >= -59
phi(0,3,3):  x(j0,m3) + 60 y(j0,k3,m3) - x(j3,m3) >= 3
psy(0,3,3):  - x(j0,m3) -60 y(j0,k3,m3) + x(j3,m3) >= -53
phi(0,3,4):  x(j0,m4) + 60 y(j0,k3,m4) - x(j3,m4) >= 8
psy(0,3,4):  - x(j0,m4) -60 y(j0,k3,m4) + x(j3,m4) >= -54
phi(0,3,5):  x(j0,m5) + 60 y(j0,k3,m5) - x(j3,m5) >= 9
psy(0,3,5):  - x(j0,m5) -60 y(j0,k3,m5) + x(j3,m5) >= -57
phi(0,4,0):  x(j0,m0) + 60 y(j0,k4,m0) - x(j4,m0) >= 3
psy(0,4,0):  - x(j0,m0) -60 y(j0,k4,m0) + x(j4,m0) >= -57
phi(0,4,1):  x(j0,m1) + 60 y(j0,k4,m1) - x(j4,m1) >= 3
psy(0,4,1):  - x(j0,m1) -60 y(j0,k4,m1) + x(j4,m1) >= -54
phi(0,4,2):  x(j0,m2) + 60 y(j0,k4,m2) - x(j4,m2) >= 9
psy(0,4,2):  - x(j0,m2) -60 y(j0,k4,m2) + x(j4,m2) >= -59
phi(0,4,3):  x(j0,m3) + 60 y(j0,k4,m3) - x(j4,m3) >= 1
psy(0,4,3):  - x(j0,m3) -60 y(j0,k4,m3) + x(j4,m3) >= -53
phi(0,4,4):  x(j0,m4) + 60 y(j0,k4,m4) - x(j4,m4) >= 5
psy(0,4,4):  - x(j0,m4) -60 y(j0,k4,m4) + x(j4,m4) >= -54
phi(0,4,5):  x(j0,m5) + 60 y(j0,k4,m5) - x(j4,m5) >= 4
psy(0,4,5):  - x(j0,m5) -60 y(j0,k4,m5) + x(j4,m5) >= -57
phi(0,5,0):  x(j0,m0) + 60 y(j0,k5,m0) - x(j5,m0) >= 10
psy(0,5,0):  - x(j0,m0) -60 y(j0,k5,m0) + x(j5,m0) >= -57
phi(0,5,1):  x(j0,m1) + 60 y(j0,k5,m1) - x(j5,m1) >= 3
psy(0,5,1):  - x(j0,m1) -60 y(j0,k5,m1) + x(j5,m1) >= -54
phi(0,5,2):  x(j0,m2) + 60 y(j0,k5,m2) - x(j5,m2) >= 1
psy(0,5,2):  - x(j0,m2) -60 y(j0,k5,m2) + x(j5,m2) >= -59
phi(0,5,3):  x(j0,m3) + 60 y(j0,k5,m3) - x(j5,m3) >= 3
psy(0,5,3):  - x(j0,m3) -60 y(j0,k5,m3) + x(j5,m3) >= -53
phi(0,5,4):  x(j0,m4) + 60 y(j0,k5,m4) - x(j5,m4) >= 4
psy(0,5,4):  - x(j0,m4) -60 y(j0,k5,m4) + x(j5,m4) >= -54
phi(0,5,5):  x(j0,m5) + 60 y(j0,k5,m5) - x(j5,m5) >= 9
psy(0,5,5):  - x(j0,m5) -60 y(j0,k5,m5) + x(j5,m5) >= -57
phi(1,0,0):  - x(j0,m0) + 60 y(j1,k0,m0) + x(j1,m0) >= 3
psy(1,0,0):  x(j0,m0) -60 y(j1,k0,m0) - x(j1,m0) >= -50
phi(1,0,1):  - x(j0,m1) + 60 y(j1,k0,m1) + x(j1,m1) >= 6
psy(1,0,1):  x(j0,m1) -60 y(j1,k0,m1) - x(j1,m1) >= -52
phi(1,0,2):  - x(j0,m2) + 60 y(j1,k0,m2) + x(j1,m2) >= 1
psy(1,0,2):  x(j0,m2) -60 y(j1,k0,m2) - x(j1,m2) >= -55
phi(1,0,3):  - x(j0,m3) + 60 y(j1,k0,m3) + x(j1,m3) >= 7
psy(1,0,3):  x(j0,m3) -60 y(j1,k0,m3) - x(j1,m3) >= -56
phi(1,0,4):  - x(j0,m4) + 60 y(j1,k0,m4) + x(j1,m4) >= 6
psy(1,0,4):  x(j0,m4) -60 y(j1,k0,m4) - x(j1,m4) >= -50
phi(1,0,5):  - x(j0,m5) + 60 y(j1,k0,m5) + x(j1,m5) >= 3
psy(1,0,5):  x(j0,m5) -60 y(j1,k0,m5) - x(j1,m5) >= -50
phi(1,2,0):  x(j1,m0) + 60 y(j1,k2,m0) - x(j2,m0) >= 9
psy(1,2,0):  - x(j1,m0) -60 y(j1,k2,m0) + x(j2,m0) >= -50
phi(1,2,1):  x(j1,m1) + 60 y(j1,k2,m1) - x(j2,m1) >= 1
psy(1,2,1):  - x(j1,m1) -60 y(j1,k2,m1) + x(j2,m1) >= -52
phi(1,2,2):  x(j1,m2) + 60 y(j1,k2,m2) - x(j2,m2) >= 5
psy(1,2,2):  - x(j1,m2) -60 y(j1,k2,m2) + x(j2,m2) >= -55
phi(1,2,3):  x(j1,m3) + 60 y(j1,k2,m3) - x(j2,m3) >= 4
psy(1,2,3):  - x(j1,m3) -60 y(j1,k2,m3) + x(j2,m3) >= -56
phi(1,2,4):  x(j1,m4) + 60 y(j1,k2,m4) - x(j2,m4) >= 7
psy(1,2,4):  - x(j1,m4) -60 y(j1,k2,m4) + x(j2,m4) >= -50
phi(1,2,5):  x(j1,m5) + 60 y(j1,k2,m5) - x(j2,m5) >= 8
psy(1,2,5):  - x(j1,m5) -60 y(j1,k2,m5) + x(j2,m5) >= -50
phi(1,3,0):  x(j1,m0) + 60 y(j1,k3,m0) - x(j3,m0) >= 5
psy(1,3,0):  - x(j1,m0) -60 y(j1,k3,m0) + x(j3,m0) >= -50
phi(1,3,1):  x(j1,m1) + 60 y(j1,k3,m1) - x(j3,m1) >= 5
psy(1,3,1):  - x(j1,m1) -60 y(j1,k3,m1) + x(j3,m1) >= -52
phi(1,3,2):  x(j1,m2) + 60 y(j1,k3,m2) - x(j3,m2) >= 5
psy(1,3,2):  - x(j1,m2) -60 y(j1,k3,m2) + x(j3,m2) >= -55
phi(1,3,3):  x(j1,m3) + 60 y(j1,k3,m3) - x(j3,m3) >= 3
psy(1,3,3):  - x(j1,m3) -60 y(j1,k3,m3) + x(j3,m3) >= -56
phi(1,3,4):  x(j1,m4) + 60 y(j1,k3,m4) - x(j3,m4) >= 8
psy(1,3,4):  - x(j1,m4) -60 y(j1,k3,m4) + x(j3,m4) >= -50
phi(1,3,5):  x(j1,m5) + 60 y(j1,k3,m5) - x(j3,m5) >= 9
psy(1,3,5):  - x(j1,m5) -60 y(j1,k3,m5) + x(j3,m5) >= -50
phi(1,4,0):  x(j1,m0) + 60 y(j1,k4,m0) - x(j4,m0) >= 3
psy(1,4,0):  - x(j1,m0) -60 y(j1,k4,m0) + x(j4,m0) >= -50
phi(1,4,1):  x(j1,m1) + 60 y(j1,k4,m1) - x(j4,m1) >= 3
psy(1,4,1):  - x(j1,m1) -60 y(j1,k4,m1) + x(j4,m1) >= -52
phi(1,4,2):  x(j1,m2) + 60 y(j1,k4,m2) - x(j4,m2) >= 9
psy(1,4,2):  - x(j1,m2) -60 y(j1,k4,m2) + x(j4,m2) >= -55
phi(1,4,3):  x(j1,m3) + 60 y(j1,k4,m3) - x(j4,m3) >= 1
psy(1,4,3):  - x(j1,m3) -60 y(j1,k4,m3) + x(j4,m3) >= -56
phi(1,4,4):  x(j1,m4) + 60 y(j1,k4,m4) - x(j4,m4) >= 5
psy(1,4,4):  - x(j1,m4) -60 y(j1,k4,m4) + x(j4,m4) >= -50
phi(1,4,5):  x(j1,m5) + 60 y(j1,k4,m5) - x(j4,m5) >= 4
psy(1,4,5):  - x(j1,m5) -60 y(j1,k4,m5) + x(j4,m5) >= -50
phi(1,5,0):  x(j1,m0) + 60 y(j1,k5,m0) - x(j5,m0) >= 10
psy(1,5,0):  - x(j1,m0) -60 y(j1,k5,m0) + x(j5,m0) >= -50
phi(1,5,1):  x(j1,m1) + 60 y(j1,k5,m1) - x(j5,m1) >= 3
psy(1,5,1):  - x(j1,m1) -60 y(j1,k5,m1) + x(j5,m1) >= -52
phi(1,5,2):  x(j1,m2) + 60 y(j1,k5,m2) - x(j5,m2) >= 1
psy(1,5,2):  - x(j1,m2) -60 y(j1,k5,m2) + x(j5,m2) >= -55
phi(1,5,3):  x(j1,m3) + 60 y(j1,k5,m3) - x(j5,m3) >= 3
psy(1,5,3):  - x(j1,m3) -60 y(j1,k5,m3) + x(j5,m3) >= -56
phi(1,5,4):  x(j1,m4) + 60 y(j1,k5,m4) - x(j5,m4) >= 4
psy(1,5,4):  - x(j1,m4) -60 y(j1,k5,m4) + x(j5,m4) >= -50
phi(1,5,5):  x(j1,m5) + 60 y(j1,k5,m5) - x(j5,m5) >= 9
psy(1,5,5):  - x(j1,m5) -60 y(j1,k5,m5) + x(j5,m5) >= -50
phi(2,0,0):  - x(j0,m0) + 60 y(j2,k0,m0) + x(j2,m0) >= 3
psy(2,0,0):  x(j0,m0) -60 y(j2,k0,m0) - x(j2,m0) >= -51
phi(2,0,1):  - x(j0,m1) + 60 y(j2,k0,m1) + x(j2,m1) >= 6
psy(2,0,1):  x(j0,m1) -60 y(j2,k0,m1) - x(j2,m1) >= -59
phi(2,0,2):  - x(j0,m2) + 60 y(j2,k0,m2) + x(j2,m2) >= 1
psy(2,0,2):  x(j0,m2) -60 y(j2,k0,m2) - x(j2,m2) >= -55
phi(2,0,3):  - x(j0,m3) + 60 y(j2,k0,m3) + x(j2,m3) >= 7
psy(2,0,3):  x(j0,m3) -60 y(j2,k0,m3) - x(j2,m3) >= -56
phi(2,0,4):  - x(j0,m4) + 60 y(j2,k0,m4) + x(j2,m4) >= 6
psy(2,0,4):  x(j0,m4) -60 y(j2,k0,m4) - x(j2,m4) >= -53
phi(2,0,5):  - x(j0,m5) + 60 y(j2,k0,m5) + x(j2,m5) >= 3
psy(2,0,5):  x(j0,m5) -60 y(j2,k0,m5) - x(j2,m5) >= -52
phi(2,1,0):  - x(j1,m0) + 60 y(j2,k1,m0) + x(j2,m0) >= 10
psy(2,1,0):  x(j1,m0) -60 y(j2,k1,m0) - x(j2,m0) >= -51
phi(2,1,1):  - x(j1,m1) + 60 y(j2,k1,m1) + x(j2,m1) >= 8
psy(2,1,1):  x(j1,m1) -60 y(j2,k1,m1) - x(j2,m1) >= -59
phi(2,1,2):  - x(j1,m2) + 60 y(j2,k1,m2) + x(j2,m2) >= 5
psy(2,1,2):  x(j1,m2) -60 y(j2,k1,m2) - x(j2,m2) >= -55
phi(2,1,3):  - x(j1,m3) + 60 y(j2,k1,m3) + x(j2,m3) >= 4
psy(2,1,3):  x(j1,m3) -60 y(j2,k1,m3) - x(j2,m3) >= -56
phi(2,1,4):  - x(j1,m4) + 60 y(j2,k1,m4) + x(j2,m4) >= 10
psy(2,1,4):  x(j1,m4) -60 y(j2,k1,m4) - x(j2,m4) >= -53
phi(2,1,5):  - x(j1,m5) + 60 y(j2,k1,m5) + x(j2,m5) >= 10
psy(2,1,5):  x(j1,m5) -60 y(j2,k1,m5) - x(j2,m5) >= -52
phi(2,3,0):  x(j2,m0) + 60 y(j2,k3,m0) - x(j3,m0) >= 5
psy(2,3,0):  - x(j2,m0) -60 y(j2,k3,m0) + x(j3,m0) >= -51
phi(2,3,1):  x(j2,m1) + 60 y(j2,k3,m1) - x(j3,m1) >= 5
psy(2,3,1):  - x(j2,m1) -60 y(j2,k3,m1) + x(j3,m1) >= -59
phi(2,3,2):  x(j2,m2) + 60 y(j2,k3,m2) - x(j3,m2) >= 5
psy(2,3,2):  - x(j2,m2) -60 y(j2,k3,m2) + x(j3,m2) >= -55
phi(2,3,3):  x(j2,m3) + 60 y(j2,k3,m3) - x(j3,m3) >= 3
psy(2,3,3):  - x(j2,m3) -60 y(j2,k3,m3) + x(j3,m3) >= -56
phi(2,3,4):  x(j2,m4) + 60 y(j2,k3,m4) - x(j3,m4) >= 8
psy(2,3,4):  - x(j2,m4) -60 y(j2,k3,m4) + x(j3,m4) >= -53
phi(2,3,5):  x(j2,m5) + 60 y(j2,k3,m5) - x(j3,m5) >= 9
psy(2,3,5):  - x(j2,m5) -60 y(j2,k3,m5) + x(j3,m5) >= -52
phi(2,4,0):  x(j2,m0) + 60 y(j2,k4,m0) - x(j4,m0) >= 3
psy(2,4,0):  - x(j2,m0) -60 y(j2,k4,m0) + x(j4,m0) >= -51
phi(2,4,1):  x(j2,m1) + 60 y(j2,k4,m1) - x(j4,m1) >= 3
psy(2,4,1):  - x(j2,m1) -60 y(j2,k4,m1) + x(j4,m1) >= -59
phi(2,4,2):  x(j2,m2) + 60 y(j2,k4,m2) - x(j4,m2) >= 9
psy(2,4,2):  - x(j2,m2) -60 y(j2,k4,m2) + x(j4,m2) >= -55
phi(2,4,3):  x(j2,m3) + 60 y(j2,k4,m3) - x(j4,m3) >= 1
psy(2,4,3):  - x(j2,m3) -60 y(j2,k4,m3) + x(j4,m3) >= -56
phi(2,4,4):  x(j2,m4) + 60 y(j2,k4,m4) - x(j4,m4) >= 5
psy(2,4,4):  - x(j2,m4) -60 y(j2,k4,m4) + x(j4,m4) >= -53
phi(2,4,5):  x(j2,m5) + 60 y(j2,k4,m5) - x(j4,m5) >= 4
psy(2,4,5):  - x(j2,m5) -60 y(j2,k4,m5) + x(j4,m5) >= -52
phi(2,5,0):  x(j2,m0) + 60 y(j2,k5,m0) - x(j5,m0) >= 10
psy(2,5,0):  - x(j2,m0) -60 y(j2,k5,m0) + x(j5,m0) >= -51
phi(2,5,1):  x(j2,m1) + 60 y(j2,k5,m1) - x(j5,m1) >= 3
psy(2,5,1):  - x(j2,m1) -60 y(j2,k5,m1) + x(j5,m1) >= -59
phi(2,5,2):  x(j2,m2) + 60 y(j2,k5,m2) - x(j5,m2) >= 1
psy(2,5,2):  - x(j2,m2) -60 y(j2,k5,m2) + x(j5,m2) >= -55
phi(2,5,3):  x(j2,m3) + 60 y(j2,k5,m3) - x(j5,m3) >= 3
psy(2,5,3):  - x(j2,m3) -60 y(j2,k5,m3) + x(j5,m3) >= -56
phi(2,5,4):  x(j2,m4) + 60 y(j2,k5,m4) - x(j5,m4) >= 4
psy(2,5,4):  - x(j2,m4) -60 y(j2,k5,m4) + x(j5,m4) >= -53
phi(2,5,5):  x(j2,m5) + 60 y(j2,k5,m5) - x(j5,m5) >= 9
psy(2,5,5):  - x(j2,m5) -60 y(j2,k5,m5) + x(j5,m5) >= -52
phi(3,0,0):  - x(j0,m0) + 60 y(j3,k0,m0) + x(j3,m0) >= 3
psy(3,0,0):  x(j0,m0) -60 y(j3,k0,m0) - x(j3,m0) >= -55
phi(3,0,1):  - x(j0,m1) + 60 y(j3,k0,m1) + x(j3,m1) >= 6
psy(3,0,1):  x(j0,m1) -60 y(j3,k0,m1) - x(j3,m1) >= -55
phi(3,0,2):  - x(j0,m2) + 60 y(j3,k0,m2) + x(j3,m2) >= 1
psy(3,0,2):  x(j0,m2) -60 y(j3,k0,m2) - x(j3,m2) >= -55
phi(3,0,3):  - x(j0,m3) + 60 y(j3,k0,m3) + x(j3,m3) >= 7
psy(3,0,3):  x(j0,m3) -60 y(j3,k0,m3) - x(j3,m3) >= -57
phi(3,0,4):  - x(j0,m4) + 60 y(j3,k0,m4) + x(j3,m4) >= 6
psy(3,0,4):  x(j0,m4) -60 y(j3,k0,m4) - x(j3,m4) >= -52
phi(3,0,5):  - x(j0,m5) + 60 y(j3,k0,m5) + x(j3,m5) >= 3
psy(3,0,5):  x(j0,m5) -60 y(j3,k0,m5) - x(j3,m5) >= -51
phi(3,1,0):  - x(j1,m0) + 60 y(j3,k1,m0) + x(j3,m0) >= 10
psy(3,1,0):  x(j1,m0) -60 y(j3,k1,m0) - x(j3,m0) >= -55
phi(3,1,1):  - x(j1,m1) + 60 y(j3,k1,m1) + x(j3,m1) >= 8
psy(3,1,1):  x(j1,m1) -60 y(j3,k1,m1) - x(j3,m1) >= -55
phi(3,1,2):  - x(j1,m2) + 60 y(j3,k1,m2) + x(j3,m2) >= 5
psy(3,1,2):  x(j1,m2) -60 y(j3,k1,m2) - x(j3,m2) >= -55
phi(3,1,3):  - x(j1,m3) + 60 y(j3,k1,m3) + x(j3,m3) >= 4
psy(3,1,3):  x(j1,m3) -60 y(j3,k1,m3) - x(j3,m3) >= -57
phi(3,1,4):  - x(j1,m4) + 60 y(j3,k1,m4) + x(j3,m4) >= 10
psy(3,1,4):  x(j1,m4) -60 y(j3,k1,m4) - x(j3,m4) >= -52
phi(3,1,5):  - x(j1,m5) + 60 y(j3,k1,m5) + x(j3,m5) >= 10
psy(3,1,5):  x(j1,m5) -60 y(j3,k1,m5) - x(j3,m5) >= -51
phi(3,2,0):  - x(j2,m0) + 60 y(j3,k2,m0) + x(j3,m0) >= 9
psy(3,2,0):  x(j2,m0) -60 y(j3,k2,m0) - x(j3,m0) >= -55
phi(3,2,1):  - x(j2,m1) + 60 y(j3,k2,m1) + x(j3,m1) >= 1
psy(3,2,1):  x(j2,m1) -60 y(j3,k2,m1) - x(j3,m1) >= -55
phi(3,2,2):  - x(j2,m2) + 60 y(j3,k2,m2) + x(j3,m2) >= 5
psy(3,2,2):  x(j2,m2) -60 y(j3,k2,m2) - x(j3,m2) >= -55
phi(3,2,3):  - x(j2,m3) + 60 y(j3,k2,m3) + x(j3,m3) >= 4
psy(3,2,3):  x(j2,m3) -60 y(j3,k2,m3) - x(j3,m3) >= -57
phi(3,2,4):  - x(j2,m4) + 60 y(j3,k2,m4) + x(j3,m4) >= 7
psy(3,2,4):  x(j2,m4) -60 y(j3,k2,m4) - x(j3,m4) >= -52
phi(3,2,5):  - x(j2,m5) + 60 y(j3,k2,m5) + x(j3,m5) >= 8
psy(3,2,5):  x(j2,m5) -60 y(j3,k2,m5) - x(j3,m5) >= -51
phi(3,4,0):  x(j3,m0) + 60 y(j3,k4,m0) - x(j4,m0) >= 3
psy(3,4,0):  - x(j3,m0) -60 y(j3,k4,m0) + x(j4,m0) >= -55
phi(3,4,1):  x(j3,m1) + 60 y(j3,k4,m1) - x(j4,m1) >= 3
psy(3,4,1):  - x(j3,m1) -60 y(j3,k4,m1) + x(j4,m1) >= -55
phi(3,4,2):  x(j3,m2) + 60 y(j3,k4,m2) - x(j4,m2) >= 9
psy(3,4,2):  - x(j3,m2) -60 y(j3,k4,m2) + x(j4,m2) >= -55
phi(3,4,3):  x(j3,m3) + 60 y(j3,k4,m3) - x(j4,m3) >= 1
psy(3,4,3):  - x(j3,m3) -60 y(j3,k4,m3) + x(j4,m3) >= -57
phi(3,4,4):  x(j3,m4) + 60 y(j3,k4,m4) - x(j4,m4) >= 5
psy(3,4,4):  - x(j3,m4) -60 y(j3,k4,m4) + x(j4,m4) >= -52
phi(3,4,5):  x(j3,m5) + 60 y(j3,k4,m5) - x(j4,m5) >= 4
psy(3,4,5):  - x(j3,m5) -60 y(j3,k4,m5) + x(j4,m5) >= -51
phi(3,5,0):  x(j3,m0) + 60 y(j3,k5,m0) - x(j5,m0) >= 10
psy(3,5,0):  - x(j3,m0) -60 y(j3,k5,m0) + x(j5,m0) >= -55
phi(3,5,1):  x(j3,m1) + 60 y(j3,k5,m1) - x(j5,m1) >= 3
psy(3,5,1):  - x(j3,m1) -60 y(j3,k5,m1) + x(j5,m1) >= -55
phi(3,5,2):  x(j3,m2) + 60 y(j3,k5,m2) - x(j5,m2) >= 1
psy(3,5,2):  - x(j3,m2) -60 y(j3,k5,m2) + x(j5,m2) >= -55
phi(3,5,3):  x(j3,m3) + 60 y(j3,k5,m3) - x(j5,m3) >= 3
psy(3,5,3):  - x(j3,m3) -60 y(j3,k5,m3) + x(j5,m3) >= -57
phi(3,5,4):  x(j3,m4) + 60 y(j3,k5,m4) - x(j5,m4) >= 4
psy(3,5,4):  - x(j3,m4) -60 y(j3,k5,m4) + x(j5,m4) >= -52
phi(3,5,5):  x(j3,m5) + 60 y(j3,k5,m5) - x(j5,m5) >= 9
psy(3,5,5):  - x(j3,m5) -60 y(j3,k5,m5) + x(j5,m5) >= -51
phi(4,0,0):  - x(j0,m0) + 60 y(j4,k0,m0) + x(j4,m0) >= 3
psy(4,0,0):  x(j0,m0) -60 y(j4,k0,m0) - x(j4,m0) >= -57
phi(4,0,1):  - x(j0,m1) + 60 y(j4,k0,m1) + x(j4,m1) >= 6
psy(4,0,1):  x(j0,m1) -60 y(j4,k0,m1) - x(j4,m1) >= -57
phi(4,0,2):  - x(j0,m2) + 60 y(j4,k0,m2) + x(j4,m2) >= 1
psy(4,0,2):  x(j0,m2) -60 y(j4,k0,m2) - x(j4,m2) >= -51
phi(4,0,3):  - x(j0,m3) + 60 y(j4,k0,m3) + x(j4,m3) >= 7
psy(4,0,3):  x(j0,m3) -60 y(j4,k0,m3) - x(j4,m3) >= -59
phi(4,0,4):  - x(j0,m4) + 60 y(j4,k0,m4) + x(j4,m4) >= 6
psy(4,0,4):  x(j0,m4) -60 y(j4,k0,m4) - x(j4,m4) >= -55
phi(4,0,5):  - x(j0,m5) + 60 y(j4,k0,m5) + x(j4,m5) >= 3
psy(4,0,5):  x(j0,m5) -60 y(j4,k0,m5) - x(j4,m5) >= -56
phi(4,1,0):  - x(j1,m0) + 60 y(j4,k1,m0) + x(j4,m0) >= 10
psy(4,1,0):  x(j1,m0) -60 y(j4,k1,m0) - x(j4,m0) >= -57
phi(4,1,1):  - x(j1,m1) + 60 y(j4,k1,m1) + x(j4,m1) >= 8
psy(4,1,1):  x(j1,m1) -60 y(j4,k1,m1) - x(j4,m1) >= -57
phi(4,1,2):  - x(j1,m2) + 60 y(j4,k1,m2) + x(j4,m2) >= 5
psy(4,1,2):  x(j1,m2) -60 y(j4,k1,m2) - x(j4,m2) >= -51
phi(4,1,3):  - x(j1,m3) + 60 y(j4,k1,m3) + x(j4,m3) >= 4
psy(4,1,3):  x(j1,m3) -60 y(j4,k1,m3) - x(j4,m3) >= -59
phi(4,1,4):  - x(j1,m4) + 60 y(j4,k1,m4) + x(j4,m4) >= 10
psy(4,1,4):  x(j1,m4) -60 y(j4,k1,m4) - x(j4,m4) >= -55
phi(4,1,5):  - x(j1,m5) + 60 y(j4,k1,m5) + x(j4,m5) >= 10
psy(4,1,5):  x(j1,m5) -60 y(j4,k1,m5) - x(j4,m5) >= -56
phi(4,2,0):  - x(j2,m0) + 60 y(j4,k2,m0) + x(j4,m0) >= 9
psy(4,2,0):  x(j2,m0) -60 y(j4,k2,m0) - x(j4,m0) >= -57
phi(4,2,1):  - x(j2,m1) + 60 y(j4,k2,m1) + x(j4,m1) >= 1
psy(4,2,1):  x(j2,m1) -60 y(j4,k2,m1) - x(j4,m1) >= -57
phi(4,2,2):  - x(j2,m2) + 60 y(j4,k2,m2) + x(j4,m2) >= 5
psy(4,2,2):  x(j2,m2) -60 y(j4,k2,m2) - x(j4,m2) >= -51
phi(4,2,3):  - x(j2,m3) + 60 y(j4,k2,m3) + x(j4,m3) >= 4
psy(4,2,3):  x(j2,m3) -60 y(j4,k2,m3) - x(j4,m3) >= -59
phi(4,2,4):  - x(j2,m4) + 60 y(j4,k2,m4) + x(j4,m4) >= 7
psy(4,2,4):  x(j2,m4) -60 y(j4,k2,m4) - x(j4,m4) >= -55
phi(4,2,5):  - x(j2,m5) + 60 y(j4,k2,m5) + x(j4,m5) >= 8
psy(4,2,5):  x(j2,m5) -60 y(j4,k2,m5) - x(j4,m5) >= -56
phi(4,3,0):  - x(j3,m0) + 60 y(j4,k3,m0) + x(j4,m0) >= 5
psy(4,3,0):  x(j3,m0) -60 y(j4,k3,m0) - x(j4,m0) >= -57
phi(4,3,1):  - x(j3,m1) + 60 y(j4,k3,m1) + x(j4,m1) >= 5
psy(4,3,1):  x(j3,m1) -60 y(j4,k3,m1) - x(j4,m1) >= -57
phi(4,3,2):  - x(j3,m2) + 60 y(j4,k3,m2) + x(j4,m2) >= 5
psy(4,3,2):  x(j3,m2) -60 y(j4,k3,m2) - x(j4,m2) >= -51
phi(4,3,3):  - x(j3,m3) + 60 y(j4,k3,m3) + x(j4,m3) >= 3
psy(4,3,3):  x(j3,m3) -60 y(j4,k3,m3) - x(j4,m3) >= -59
phi(4,3,4):  - x(j3,m4) + 60 y(j4,k3,m4) + x(j4,m4) >= 8
psy(4,3,4):  x(j3,m4) -60 y(j4,k3,m4) - x(j4,m4) >= -55
phi(4,3,5):  - x(j3,m5) + 60 y(j4,k3,m5) + x(j4,m5) >= 9
psy(4,3,5):  x(j3,m5) -60 y(j4,k3,m5) - x(j4,m5) >= -56
phi(4,5,0):  x(j4,m0) + 60 y(j4,k5,m0) - x(j5,m0) >= 10
psy(4,5,0):  - x(j4,m0) -60 y(j4,k5,m0) + x(j5,m0) >= -57
phi(4,5,1):  x(j4,m1) + 60 y(j4,k5,m1) - x(j5,m1) >= 3
psy(4,5,1):  - x(j4,m1) -60 y(j4,k5,m1) + x(j5,m1) >= -57
phi(4,5,2):  x(j4,m2) + 60 y(j4,k5,m2) - x(j5,m2) >= 1
psy(4,5,2):  - x(j4,m2) -60 y(j4,k5,m2) + x(j5,m2) >= -51
phi(4,5,3):  x(j4,m3) + 60 y(j4,k5,m3) - x(j5,m3) >= 3
psy(4,5,3):  - x(j4,m3) -60 y(j4,k5,m3) + x(j5,m3) >= -59
phi(4,5,4):  x(j4,m4) + 60 y(j4,k5,m4) - x(j5,m4) >= 4
psy(4,5,4):  - x(j4,m4) -60 y(j4,k5,m4) + x(j5,m4) >= -55
phi(4,5,5):  x(j4,m5) + 60 y(j4,k5,m5) - x(j5,m5) >= 9
psy(4,5,5):  - x(j4,m5) -60 y(j4,k5,m5) + x(j5,m5) >= -56
phi(5,0,0):  - x(j0,m0) + 60 y(j5,k0,m0) + x(j5,m0) >= 3
psy(5,0,0):  x(j0,m0) -60 y(j5,k0,m0) - x(j5,m0) >= -50
phi(5,0,1):  - x(j0,m1) + 60 y(j5,k0,m1) + x(j5,m1) >= 6
psy(5,0,1):  x(j0,m1) -60 y(j5,k0,m1) - x(j5,m1) >= -57
phi(5,0,2):  - x(j0,m2) + 60 y(j5,k0,m2) + x(j5,m2) >= 1
psy(5,0,2):  x(j0,m2) -60 y(j5,k0,m2) - x(j5,m2) >= -59
phi(5,0,3):  - x(j0,m3) + 60 y(j5,k0,m3) + x(j5,m3) >= 7
psy(5,0,3):  x(j0,m3) -60 y(j5,k0,m3) - x(j5,m3) >= -57
phi(5,0,4):  - x(j0,m4) + 60 y(j5,k0,m4) + x(j5,m4) >= 6
psy(5,0,4):  x(j0,m4) -60 y(j5,k0,m4) - x(j5,m4) >= -56
phi(5,0,5):  - x(j0,m5) + 60 y(j5,k0,m5) + x(j5,m5) >= 3
psy(5,0,5):  x(j0,m5) -60 y(j5,k0,m5) - x(j5,m5) >= -51
phi(5,1,0):  - x(j1,m0) + 60 y(j5,k1,m0) + x(j5,m0) >= 10
psy(5,1,0):  x(j1,m0) -60 y(j5,k1,m0) - x(j5,m0) >= -50
phi(5,1,1):  - x(j1,m1) + 60 y(j5,k1,m1) + x(j5,m1) >= 8
psy(5,1,1):  x(j1,m1) -60 y(j5,k1,m1) - x(j5,m1) >= -57
phi(5,1,2):  - x(j1,m2) + 60 y(j5,k1,m2) + x(j5,m2) >= 5
psy(5,1,2):  x(j1,m2) -60 y(j5,k1,m2) - x(j5,m2) >= -59
phi(5,1,3):  - x(j1,m3) + 60 y(j5,k1,m3) + x(j5,m3) >= 4
psy(5,1,3):  x(j1,m3) -60 y(j5,k1,m3) - x(j5,m3) >= -57
phi(5,1,4):  - x(j1,m4) + 60 y(j5,k1,m4) + x(j5,m4) >= 10
psy(5,1,4):  x(j1,m4) -60 y(j5,k1,m4) - x(j5,m4) >= -56
phi(5,1,5):  - x(j1,m5) + 60 y(j5,k1,m5) + x(j5,m5) >= 10
psy(5,1,5):  x(j1,m5) -60 y(j5,k1,m5) - x(j5,m5) >= -51
phi(5,2,0):  - x(j2,m0) + 60 y(j5,k2,m0) + x(j5,m0) >= 9
psy(5,2,0):  x(j2,m0) -60 y(j5,k2,m0) - x(j5,m0) >= -50
phi(5,2,1):  - x(j2,m1) + 60 y(j5,k2,m1) + x(j5,m1) >= 1
psy(5,2,1):  x(j2,m1) -60 y(j5,k2,m1) - x(j5,m1) >= -57
phi(5,2,2):  - x(j2,m2) + 60 y(j5,k2,m2) + x(j5,m2) >= 5
psy(5,2,2):  x(j2,m2) -60 y(j5,k2,m2) - x(j5,m2) >= -59
phi(5,2,3):  - x(j2,m3) + 60 y(j5,k2,m3) + x(j5,m3) >= 4
psy(5,2,3):  x(j2,m3) -60 y(j5,k2,m3) - x(j5,m3) >= -57
phi(5,2,4):  - x(j2,m4) + 60 y(j5,k2,m4) + x(j5,m4) >= 7
psy(5,2,4):  x(j2,m4) -60 y(j5,k2,m4) - x(j5,m4) >= -56
phi(5,2,5):  - x(j2,m5) + 60 y(j5,k2,m5) + x(j5,m5) >= 8
psy(5,2,5):  x(j2,m5) -60 y(j5,k2,m5) - x(j5,m5) >= -51
phi(5,3,0):  - x(j3,m0) + 60 y(j5,k3,m0) + x(j5,m0) >= 5
psy(5,3,0):  x(j3,m0) -60 y(j5,k3,m0) - x(j5,m0) >= -50
phi(5,3,1):  - x(j3,m1) + 60 y(j5,k3,m1) + x(j5,m1) >= 5
psy(5,3,1):  x(j3,m1) -60 y(j5,k3,m1) - x(j5,m1) >= -57
phi(5,3,2):  - x(j3,m2) + 60 y(j5,k3,m2) + x(j5,m2) >= 5
psy(5,3,2):  x(j3,m2) -60 y(j5,k3,m2) - x(j5,m2) >= -59
phi(5,3,3):  - x(j3,m3) + 60 y(j5,k3,m3) + x(j5,m3) >= 3
psy(5,3,3):  x(j3,m3) -60 y(j5,k3,m3) - x(j5,m3) >= -57
phi(5,3,4):  - x(j3,m4) + 60 y(j5,k3,m4) + x(j5,m4) >= 8
psy(5,3,4):  x(j3,m4) -60 y(j5,k3,m4) - x(j5,m4) >= -56
phi(5,3,5):  - x(j3,m5) + 60 y(j5,k3,m5) + x(j5,m5) >= 9
psy(5,3,5):  x(j3,m5) -60 y(j5,k3,m5) - x(j5,m5) >= -51
phi(5,4,0):  - x(j4,m0) + 60 y(j5,k4,m0) + x(j5,m0) >= 3
psy(5,4,0):  x(j4,m0) -60 y(j5,k4,m0) - x(j5,m0) >= -50
phi(5,4,1):  - x(j4,m1) + 60 y(j5,k4,m1) + x(j5,m1) >= 3
psy(5,4,1):  x(j4,m1) -60 y(j5,k4,m1) - x(j5,m1) >= -57
phi(5,4,2):  - x(j4,m2) + 60 y(j5,k4,m2) + x(j5,m2) >= 9
psy(5,4,2):  x(j4,m2) -60 y(j5,k4,m2) - x(j5,m2) >= -59
phi(5,4,3):  - x(j4,m3) + 60 y(j5,k4,m3) + x(j5,m3) >= 1
psy(5,4,3):  x(j4,m3) -60 y(j5,k4,m3) - x(j5,m3) >= -57
phi(5,4,4):  - x(j4,m4) + 60 y(j5,k4,m4) + x(j5,m4) >= 5
psy(5,4,4):  x(j4,m4) -60 y(j5,k4,m4) - x(j5,m4) >= -56
phi(5,4,5):  - x(j4,m5) + 60 y(j5,k4,m5) + x(j5,m5) >= 4
psy(5,4,5):  x(j4,m5) -60 y(j5,k4,m5) - x(j5,m5) >= -51
makespan(0):  C - x(j0,m4) >= 6
makespan(1):  C - x(j1,m3) >= 4
makespan(2):  C - x(j2,m4) >= 7
makespan(3):  C - x(j3,m5) >= 9
makespan(4):  C - x(j4,m3) >= 1
makespan(5):  C - x(j5,m2) >= 1
Bounds
 0 <= y(j0,k1,m0) <= 1
 0 <= y(j1,k0,m0) <= 1
 0 <= y(j0,k2,m0) <= 1
 0 <= y(j2,k0,m0) <= 1
 0 <= y(j0,k3,m0) <= 1
 0 <= y(j3,k0,m0) <= 1
 0 <= y(j0,k4,m0) <= 1
 0 <= y(j4,k0,m0) <= 1
 0 <= y(j0,k5,m0) <= 1
 0 <= y(j5,k0,m0) <= 1
 0 <= y(j1,k2,m0) <= 1
 0 <= y(j2,k1,m0) <= 1
 0 <= y(j1,k3,m0) <= 1
 0 <= y(j3,k1,m0) <= 1
 0 <= y(j1,k4,m0) <= 1
 0 <= y(j4,k1,m0) <= 1
 0 <= y(j1,k5,m0) <= 1
 0 <= y(j5,k1,m0) <= 1
 0 <= y(j2,k3,m0) <= 1
 0 <= y(j3,k2,m0) <= 1
 0 <= y(j2,k4,m0) <= 1
 0 <= y(j4,k2,m0) <= 1
 0 <= y(j2,k5,m0) <= 1
 0 <= y(j5,k2,m0) <= 1
 0 <= y(j3,k4,m0) <= 1
 0 <= y(j4,k3,m0) <= 1
 0 <= y(j3,k5,m0) <= 1
 0 <= y(j5,k3,m0) <= 1
 0 <= y(j4,k5,m0) <= 1
 0 <= y(j5,k4,m0) <= 1
 0 <= y(j0,k1,m1) <= 1
 0 <= y(j1,k0,m1) <= 1
 0 <= y(j0,k2,m1) <= 1
 0 <= y(j2,k0,m1) <= 1
 0 <= y(j0,k3,m1) <= 1
 0 <= y(j3,k0,m1) <= 1
 0 <= y(j0,k4,m1) <= 1
 0 <= y(j4,k0,m1) <= 1
 0 <= y(j0,k5,m1) <= 1
 0 <= y(j5,k0,m1) <= 1
 0 <= y(j1,k2,m1) <= 1
 0 <= y(j2,k1,m1) <= 1
 0 <= y(j1,k3,m1) <= 1
 0 <= y(j3,k1,m1) <= 1
 0 <= y(j1,k4,m1) <= 1
 0 <= y(j4,k1,m1) <= 1
 0 <= y(j1,k5,m1) <= 1
 0 <= y(j5,k1,m1) <= 1
 0 <= y(j2,k3,m1) <= 1
 0 <= y(j3,k2,m1) <= 1
 0 <= y(j2,k4,m1) <= 1
 0 <= y(j4,k2,m1) <= 1
 0 <= y(j2,k5,m1) <= 1
 0 <= y(j5,k2,m1) <= 1
 0 <= y(j3,k4,m1) <= 1
 0 <= y(j4,k3,m1) <= 1
 0 <= y(j3,k5,m1) <= 1
 0 <= y(j5,k3,m1) <= 1
 0 <= y(j4,k5,m1) <= 1
 0 <= y(j5,k4,m1) <= 1
 0 <= y(j0,k1,m2) <= 1
 0 <= y(j1,k0,m2) <= 1
 0 <= y(j0,k2,m2) <= 1
 0 <= y(j2,k0,m2) <= 1
 0 <= y(j0,k3,m2) <= 1
 0 <= y(j3,k0,m2) <= 1
 0 <= y(j0,k4,m2) <= 1
 0 <= y(j4,k0,m2) <= 1
 0 <= y(j0,k5,m2) <= 1
 0 <= y(j5,k0,m2) <= 1
 0 <= y(j1,k2,m2) <= 1
 0 <= y(j2,k1,m2) <= 1
 0 <= y(j1,k3,m2) <= 1
 0 <= y(j3,k1,m2) <= 1
 0 <= y(j1,k4,m2) <= 1
 0 <= y(j4,k1,m2) <= 1
 0 <= y(j1,k5,m2) <= 1
 0 <= y(j5,k1,m2) <= 1
 0 <= y(j2,k3,m2) <= 1
 0 <= y(j3,k2,m2) <= 1
 0 <= y(j2,k4,m2) <= 1
 0 <= y(j4,k2,m2) <= 1
 0 <= y(j2,k5,m2) <= 1
 0 <= y(j5,k2,m2) <= 1
 0 <= y(j3,k4,m2) <= 1
 0 <= y(j4,k3,m2) <= 1
 0 <= y(j3,k5,m2) <= 1
 0 <= y(j5,k3,m2) <= 1
 0 <= y(j4,k5,m2) <= 1
 0 <= y(j5,k4,m2) <= 1
 0 <= y(j0,k1,m3) <= 1
 0 <= y(j1,k0,m3) <= 1
 0 <= y(j0,k2,m3) <= 1
 0 <= y(j2,k0,m3) <= 1
 0 <= y(j0,k3,m3) <= 1
 0 <= y(j3,k0,m3) <= 1
 0 <= y(j0,k4,m3) <= 1
 0 <= y(j4,k0,m3) <= 1
 0 <= y(j0,k5,m3) <= 1
 0 <= y(j5,k0,m3) <= 1
 0 <= y(j1,k2,m3) <= 1
 0 <= y(j2,k1,m3) <= 1
 0 <= y(j1,k3,m3) <= 1
 0 <= y(j3,k1,m3) <= 1
 0 <= y(j1,k4,m3) <= 1
 0 <= y(j4,k1,m3) <= 1
 0 <= y(j1,k5,m3) <= 1
 0 <= y(j5,k1,m3) <= 1
 0 <= y(j2,k3,m3) <= 1
 0 <= y(j3,k2,m3) <= 1
 0 <= y(j2,k4,m3) <= 1
 0 <= y(j4,k2,m3) <= 1
 0 <= y(j2,k5,m3) <= 1
 0 <= y(j5,k2,m3) <= 1
 0 <= y(j3,k4,m3) <= 1
 0 <= y(j4,k3,m3) <= 1
 0 <= y(j3,k5,m3) <= 1
 0 <= y(j5,k3,m3) <= 1
 0 <= y(j4,k5,m3) <= 1
 0 <= y(j5,k4,m3) <= 1
 0 <= y(j0,k1,m4) <= 1
 0 <= y(j1,k0,m4) <= 1
 0 <= y(j0,k2,m4) <= 1
 0 <= y(j2,k0,m4) <= 1
 0 <= y(j0,k3,m4) <= 1
 0 <= y(j3,k0,m4) <= 1
 0 <= y(j0,k4,m4) <= 1
 0 <= y(j4,k0,m4) <= 1
 0 <= y(j0,k5,m4) <= 1
 0 <= y(j5,k0,m4) <= 1
 0 <= y(j1,k2,m4) <= 1
 0 <= y(j2,k1,m4) <= 1
 0 <= y(j1,k3,m4) <= 1
 0 <= y(j3,k1,m4) <= 1
 0 <= y(j1,k4,m4) <= 1
 0 <= y(j4,k1,m4) <= 1
 0 <= y(j1,k5,m4) <= 1
 0 <= y(j5,k1,m4) <= 1
 0 <= y(j2,k3,m4) <= 1
 0 <= y(j3,k2,m4) <= 1
 0 <= y(j2,k4,m4) <= 1
 0 <= y(j4,k2,m4) <= 1
 0 <= y(j2,k5,m4) <= 1
 0 <= y(j5,k2,m4) <= 1
 0 <= y(j3,k4,m4) <= 1
 0 <= y(j4,k3,m4) <= 1
 0 <= y(j3,k5,m4) <= 1
 0 <= y(j5,k3,m4) <= 1
 0 <= y(j4,k5,m4) <= 1
 0 <= y(j5,k4,m4) <= 1
 0 <= y(j0,k1,m5) <= 1
 0 <= y(j1,k0,m5) <= 1
 0 <= y(j0,k2,m5) <= 1
 0 <= y(j2,k0,m5) <= 1
 0 <= y(j0,k3,m5) <= 1
 0 <= y(j3,k0,m5) <= 1
 0 <= y(j0,k4,m5) <= 1
 0 <= y(j4,k0,m5) <= 1
 0 <= y(j0,k5,m5) <= 1
 0 <= y(j5,k0,m5) <= 1
 0 <= y(j1,k2,m5) <= 1
 0 <= y(j2,k1,m5) <= 1
 0 <= y(j1,k3,m5) <= 1
 0 <= y(j3,k1,m5) <= 1
 0 <= y(j1,k4,m5) <= 1
 0 <= y(j4,k1,m5) <= 1
 0 <= y(j1,k5,m5) <= 1
 0 <= y(j5,k1,m5) <= 1
 0 <= y(j2,k3,m5) <= 1
 0 <= y(j3,k2,m5) <= 1
 0 <= y(j2,k4,m5) <= 1
 0 <= y(j4,k2,m5) <= 1
 0 <= y(j2,k5,m5) <= 1
 0 <= y(j5,k2,m5) <= 1
 0 <= y(j3,k4,m5) <= 1
 0 <= y(j4,k3,m5) <= 1
 0 <= y(j3,k5,m5) <= 1
 0 <= y(j5,k3,m5) <= 1
 0 <= y(j4,k5,m5) <= 1
 0 <= y(j5,k4,m5) <= 1
Integers
C x(j0,m0) y(j0,k1,m0) y(j1,k0,m0) y(j0,k2,m0) y(j2,k0,m0) y(j0,k3,m0) y(j3,k0,m0) y(j0,k4,m0) y(j4,k0,m0) 
y(j0,k5,m0) y(j5,k0,m0) x(j1,m0) y(j1,k2,m0) y(j2,k1,m0) y(j1,k3,m0) y(j3,k1,m0) y(j1,k4,m0) y(j4,k1,m0) y(j1,k5,m0) 
y(j5,k1,m0) x(j2,m0) y(j2,k3,m0) y(j3,k2,m0) y(j2,k4,m0) y(j4,k2,m0) y(j2,k5,m0) y(j5,k2,m0) x(j3,m0) y(j3,k4,m0) 
y(j4,k3,m0) y(j3,k5,m0) y(j5,k3,m0) x(j4,m0) y(j4,k5,m0) y(j5,k4,m0) x(j5,m0) x(j0,m1) y(j0,k1,m1) y(j1,k0,m1) 
y(j0,k2,m1) y(j2,k0,m1) y(j0,k3,m1) y(j3,k0,m1) y(j0,k4,m1) y(j4,k0,m1) y(j0,k5,m1) y(j5,k0,m1) x(j1,m1) y(j1,k2,m1) 
y(j2,k1,m1) y(j1,k3,m1) y(j3,k1,m1) y(j1,k4,m1) y(j4,k1,m1) y(j1,k5,m1) y(j5,k1,m1) x(j2,m1) y(j2,k3,m1) y(j3,k2,m1) 
y(j2,k4,m1) y(j4,k2,m1) y(j2,k5,m1) y(j5,k2,m1) x(j3,m1) y(j3,k4,m1) y(j4,k3,m1) y(j3,k5,m1) y(j5,k3,m1) x(j4,m1) 
y(j4,k5,m1) y(j5,k4,m1) x(j5,m1) x(j0,m2) y(j0,k1,m2) y(j1,k0,m2) y(j0,k2,m2) y(j2,k0,m2) y(j0,k3,m2) y(j3,k0,m2) 
y(j0,k4,m2) y(j4,k0,m2) y(j0,k5,m2) y(j5,k0,m2) x(j1,m2) y(j1,k2,m2) y(j2,k1,m2) y(j1,k3,m2) y(j3,k1,m2) y(j1,k4,m2) 
y(j4,k1,m2) y(j1,k5,m2) y(j5,k1,m2) x(j2,m2) y(j2,k3,m2) y(j3,k2,m2) y(j2,k4,m2) y(j4,k2,m2) y(j2,k5,m2) y(j5,k2,m2) 
x(j3,m2) y(j3,k4,m2) y(j4,k3,m2) y(j3,k5,m2) y(j5,k3,m2) x(j4,m2) y(j4,k5,m2) y(j5,k4,m2) x(j5,m2) x(j0,m3) 
y(j0,k1,m3) y(j1,k0,m3) y(j0,k2,m3) y(j2,k0,m3) y(j0,k3,m3) y(j3,k0,m3) y(j0,k4,m3) y(j4,k0,m3) y(j0,k5,m3) y(j5,k0,m3) 
x(j1,m3) y(j1,k2,m3) y(j2,k1,m3) y(j1,k3,m3) y(j3,k1,m3) y(j1,k4,m3) y(j4,k1,m3) y(j1,k5,m3) y(j5,k1,m3) x(j2,m3) 
y(j2,k3,m3) y(j3,k2,m3) y(j2,k4,m3) y(j4,k2,m3) y(j2,k5,m3) y(j5,k2,m3) x(j3,m3) y(j3,k4,m3) y(j4,k3,m3) y(j3,k5,m3) 
y(j5,k3,m3) x(j4,m3) y(j4,k5,m3) y(j5,k4,m3) x(j5,m3) x(j0,m4) y(j0,k1,m4) y(j1,k0,m4) y(j0,k2,m4) y(j2,k0,m4) 
y(j0,k3,m4) y(j3,k0,m4) y(j0,k4,m4) y(j4,k0,m4) y(j0,k5,m4) y(j5,k0,m4) x(j1,m4) y(j1,k2,m4) y(j2,k1,m4) y(j1,k3,m4) 
y(j3,k1,m4) y(j1,k4,m4) y(j4,k1,m4) y(j1,k5,m4) y(j5,k1,m4) x(j2,m4) y(j2,k3,m4) y(j3,k2,m4) y(j2,k4,m4) y(j4,k2,m4) 
y(j2,k5,m4) y(j5,k2,m4) x(j3,m4) y(j3,k4,m4) y(j4,k3,m4) y(j3,k5,m4) y(j5,k3,m4) x(j4,m4) y(j4,k5,m4) y(j5,k4,m4) 
x(j5,m4) x(j0,m5) y(j0,k1,m5) y(j1,k0,m5) y(j0,k2,m5) y(j2,k0,m5) y(j0,k3,m5) y(j3,k0,m5) y(j0,k4,m5) y(j4,k0,m5) 
y(j0,k5,m5) y(j5,k0,m5) x(j1,m5) y(j1,k2,m5) y(j2,k1,m5) y(j1,k3,m5) y(j3,k1,m5) y(j1,k4,m5) y(j4,k1,m5) y(j1,k5,m5) 
y(j5,k1,m5) x(j2,m5) y(j2,k3,m5) y(j3,k2,m5) y(j2,k4,m5) y(j4,k2,m5) y(j2,k5,m5) y(j5,k2,m5) x(j3,m5) y(j3,k4,m5) 
y(j4,k3,m5) y(j3,k5,m5) y(j5,k3,m5) x(j4,m5) y(j4,k5,m5) y(j5,k4,m5) x(j5,m5) 
End
